c nIsolatedPIs 0
c maxPI 32
p cnf 176 433
c gate 33 -1 17 0
-1 -33 0
17 -33 0
1 -17 33 0
c gate 34 18 33 0
18 -34 0
33 -34 0
-18 -33 34 0
c gate 35 2 -34 0
2 -35 0
-34 -35 0
-2 34 35 0
c gate 36 -18 -33 0
-18 -36 0
-33 -36 0
18 33 36 0
c gate 37 3 -19 0
3 -37 0
-19 -37 0
-3 19 37 0
c gate 38 -36 -37 0
-36 -38 0
-37 -38 0
36 37 38 0
c gate 39 -35 38 0
-35 -39 0
38 -39 0
35 -38 39 0
c gate 40 -4 20 0
-4 -40 0
20 -40 0
4 -20 40 0
c gate 41 -3 19 0
-3 -41 0
19 -41 0
3 -19 41 0
c gate 42 -40 -41 0
-40 -42 0
-41 -42 0
40 41 42 0
c gate 43 -39 42 0
-39 -43 0
42 -43 0
39 -42 43 0
c gate 44 4 -20 0
4 -44 0
-20 -44 0
-4 20 44 0
c gate 45 5 -21 0
5 -45 0
-21 -45 0
-5 21 45 0
c gate 46 -44 -45 0
-44 -46 0
-45 -46 0
44 45 46 0
c gate 47 -43 46 0
-43 -47 0
46 -47 0
43 -46 47 0
c gate 48 -6 22 0
-6 -48 0
22 -48 0
6 -22 48 0
c gate 49 -5 21 0
-5 -49 0
21 -49 0
5 -21 49 0
c gate 50 -48 -49 0
-48 -50 0
-49 -50 0
48 49 50 0
c gate 51 -47 50 0
-47 -51 0
50 -51 0
47 -50 51 0
c gate 52 7 -23 0
7 -52 0
-23 -52 0
-7 23 52 0
c gate 53 6 -22 0
6 -53 0
-22 -53 0
-6 22 53 0
c gate 54 -52 -53 0
-52 -54 0
-53 -54 0
52 53 54 0
c gate 55 -51 54 0
-51 -55 0
54 -55 0
51 -54 55 0
c gate 56 8 24 0
8 -56 0
24 -56 0
-8 -24 56 0
c gate 57 -8 -24 0
-8 -57 0
-24 -57 0
8 24 57 0
c gate 58 -56 -57 0
-56 -58 0
-57 -58 0
56 57 58 0
c gate 59 -7 23 0
-7 -59 0
23 -59 0
7 -23 59 0
c gate 60 -58 -59 0
-58 -60 0
-59 -60 0
58 59 60 0
c gate 61 -55 60 0
-55 -61 0
60 -61 0
55 -60 61 0
c gate 62 -15 31 0
-15 -62 0
31 -62 0
15 -31 62 0
c gate 63 -14 30 0
-14 -63 0
30 -63 0
14 -30 63 0
c gate 64 -62 -63 0
-62 -64 0
-63 -64 0
62 63 64 0
c gate 65 13 -29 0
13 -65 0
-29 -65 0
-13 29 65 0
c gate 66 -12 28 0
-12 -66 0
28 -66 0
12 -28 66 0
c gate 67 -13 29 0
-13 -67 0
29 -67 0
13 -29 67 0
c gate 68 -66 -67 0
-66 -68 0
-67 -68 0
66 67 68 0
c gate 69 11 -27 0
11 -69 0
-27 -69 0
-11 27 69 0
c gate 70 -10 26 0
-10 -70 0
26 -70 0
10 -26 70 0
c gate 71 -11 27 0
-11 -71 0
27 -71 0
11 -27 71 0
c gate 72 -70 -71 0
-70 -72 0
-71 -72 0
70 71 72 0
c gate 73 9 25 0
9 -73 0
25 -73 0
-9 -25 73 0
c gate 74 -9 -25 0
-9 -74 0
-25 -74 0
9 25 74 0
c gate 75 -73 -74 0
-73 -75 0
-74 -75 0
73 74 75 0
c gate 76 8 -24 0
8 -76 0
-24 -76 0
-8 24 76 0
c gate 77 -75 76 0
-75 -77 0
76 -77 0
75 -76 77 0
c gate 78 10 -26 0
10 -78 0
-26 -78 0
-10 26 78 0
c gate 79 9 -25 0
9 -79 0
-25 -79 0
-9 25 79 0
c gate 80 -78 -79 0
-78 -80 0
-79 -80 0
78 79 80 0
c gate 81 -77 80 0
-77 -81 0
80 -81 0
77 -80 81 0
c gate 82 72 -81 0
72 -82 0
-81 -82 0
-72 81 82 0
c gate 83 -69 -82 0
-69 -83 0
-82 -83 0
69 82 83 0
c gate 84 12 -28 0
12 -84 0
-28 -84 0
-12 28 84 0
c gate 85 83 -84 0
83 -85 0
-84 -85 0
-83 84 85 0
c gate 86 68 -85 0
68 -86 0
-85 -86 0
-68 85 86 0
c gate 87 -65 -86 0
-65 -87 0
-86 -87 0
65 86 87 0
c gate 88 14 -30 0
14 -88 0
-30 -88 0
-14 30 88 0
c gate 89 87 -88 0
87 -89 0
-88 -89 0
-87 88 89 0
c gate 90 61 -75 0
61 -90 0
-75 -90 0
-61 75 90 0
c gate 91 68 72 0
68 -91 0
72 -91 0
-68 -72 91 0
c gate 92 90 91 0
90 -92 0
91 -92 0
-90 -91 92 0
c gate 93 89 -92 0
89 -93 0
-92 -93 0
-89 92 93 0
c gate 94 64 -93 0
64 -94 0
-93 -94 0
-64 93 94 0
c gate 95 16 -32 0
16 -95 0
-32 -95 0
-16 32 95 0
c gate 96 -16 32 0
-16 -96 0
32 -96 0
16 -32 96 0
c gate 97 -95 -96 0
-95 -97 0
-96 -97 0
95 96 97 0
c gate 98 94 -97 0
94 -98 0
-97 -98 0
-94 97 98 0
c gate 99 15 -31 0
15 -99 0
-31 -99 0
-15 31 99 0
c gate 100 64 -89 0
64 -100 0
-89 -100 0
-64 89 100 0
c gate 101 -99 -100 0
-99 -101 0
-100 -101 0
99 100 101 0
c gate 102 98 101 0
98 -102 0
101 -102 0
-98 -101 102 0
c gate 103 -70 -78 0
-70 -103 0
-78 -103 0
70 78 103 0
c gate 104 11 27 0
11 -104 0
27 -104 0
-11 -27 104 0
c gate 105 -11 -27 0
-11 -105 0
-27 -105 0
11 27 105 0
c gate 106 -104 -105 0
-104 -106 0
-105 -106 0
104 105 106 0
c gate 107 103 -106 0
103 -107 0
-106 -107 0
-103 106 107 0
c gate 108 -76 -107 0
-76 -108 0
-107 -108 0
76 107 108 0
c gate 109 -66 -84 0
-66 -109 0
-84 -109 0
66 84 109 0
c gate 110 -65 -67 0
-65 -110 0
-67 -110 0
65 67 110 0
c gate 111 109 110 0
109 -111 0
110 -111 0
-109 -110 111 0
c gate 112 83 -111 0
83 -112 0
-111 -112 0
-83 111 112 0
c gate 113 -62 -99 0
-62 -113 0
-99 -113 0
62 99 113 0
c gate 114 -63 -88 0
-63 -114 0
-88 -114 0
63 88 114 0
c gate 115 113 114 0
113 -115 0
114 -115 0
-113 -114 115 0
c gate 116 68 -115 0
68 -116 0
-115 -116 0
-68 115 116 0
c gate 117 87 116 0
87 -117 0
116 -117 0
-87 -116 117 0
c gate 118 -112 -117 0
-112 -118 0
-117 -118 0
112 117 118 0
c gate 119 72 -118 0
72 -119 0
-118 -119 0
-72 118 119 0
c gate 120 -108 -119 0
-108 -120 0
-119 -120 0
108 119 120 0
c gate 121 90 -120 0
90 -121 0
-120 -121 0
-90 120 121 0
c gate 122 -2 -18 0
-2 -122 0
-18 -122 0
2 18 122 0
c gate 123 1 17 0
1 -123 0
17 -123 0
-1 -17 123 0
c gate 124 -122 123 0
-122 -124 0
123 -124 0
122 -123 124 0
c gate 125 3 19 0
3 -125 0
19 -125 0
-3 -19 125 0
c gate 126 2 18 0
2 -126 0
18 -126 0
-2 -18 126 0
c gate 127 -125 -126 0
-125 -127 0
-126 -127 0
125 126 127 0
c gate 128 -124 127 0
-124 -128 0
127 -128 0
124 -127 128 0
c gate 129 -4 -20 0
-4 -129 0
-20 -129 0
4 20 129 0
c gate 130 -3 -19 0
-3 -130 0
-19 -130 0
3 19 130 0
c gate 131 -129 -130 0
-129 -131 0
-130 -131 0
129 130 131 0
c gate 132 -128 131 0
-128 -132 0
131 -132 0
128 -131 132 0
c gate 133 5 21 0
5 -133 0
21 -133 0
-5 -21 133 0
c gate 134 4 20 0
4 -134 0
20 -134 0
-4 -20 134 0
c gate 135 -133 -134 0
-133 -135 0
-134 -135 0
133 134 135 0
c gate 136 -132 135 0
-132 -136 0
135 -136 0
132 -135 136 0
c gate 137 -6 -22 0
-6 -137 0
-22 -137 0
6 22 137 0
c gate 138 -5 -21 0
-5 -138 0
-21 -138 0
5 21 138 0
c gate 139 -137 -138 0
-137 -139 0
-138 -139 0
137 138 139 0
c gate 140 -136 139 0
-136 -140 0
139 -140 0
136 -139 140 0
c gate 141 7 23 0
7 -141 0
23 -141 0
-7 -23 141 0
c gate 142 6 22 0
6 -142 0
22 -142 0
-6 -22 142 0
c gate 143 -141 -142 0
-141 -143 0
-142 -143 0
141 142 143 0
c gate 144 -140 143 0
-140 -144 0
143 -144 0
140 -143 144 0
c gate 145 -56 -73 0
-56 -145 0
-73 -145 0
56 73 145 0
c gate 146 -7 -23 0
-7 -146 0
-23 -146 0
7 23 146 0
c gate 147 -57 -146 0
-57 -147 0
-146 -147 0
57 146 147 0
c gate 148 145 -147 0
145 -148 0
-147 -148 0
-145 147 148 0
c gate 149 -74 -103 0
-74 -149 0
-103 -149 0
74 103 149 0
c gate 150 -148 149 0
-148 -150 0
149 -150 0
148 -149 150 0
c gate 151 106 145 0
106 -151 0
145 -151 0
-106 -145 151 0
c gate 152 150 151 0
150 -152 0
151 -152 0
-150 -151 152 0
c gate 153 144 152 0
144 -153 0
152 -153 0
-144 -152 153 0
c gate 154 10 26 0
10 -154 0
26 -154 0
-10 -26 154 0
c gate 155 -104 -154 0
-104 -155 0
-154 -155 0
104 154 155 0
c gate 156 -150 155 0
-150 -156 0
155 -156 0
150 -155 156 0
c gate 157 -105 -109 0
-105 -157 0
-109 -157 0
105 109 157 0
c gate 158 -156 157 0
-156 -158 0
157 -158 0
156 -157 158 0
c gate 159 -153 158 0
-153 -159 0
158 -159 0
153 -158 159 0
c gate 160 144 -146 0
144 -160 0
-146 -160 0
-144 146 160 0
c gate 161 -158 160 0
-158 -161 0
160 -161 0
158 -160 161 0
c gate 162 -159 -161 0
-159 -162 0
-161 -162 0
159 161 162 0
c gate 163 58 160 0
58 -163 0
160 -163 0
-58 -160 163 0
c gate 164 162 163 0
162 -164 0
163 -164 0
-162 -163 164 0
c gate 165 -97 -110 0
-97 -165 0
-110 -165 0
97 110 165 0
c gate 166 -113 -114 0
-113 -166 0
-114 -166 0
113 114 166 0
c gate 167 165 166 0
165 -167 0
166 -167 0
-165 -166 167 0
c gate 168 159 -167 0
159 -168 0
-167 -168 0
-159 167 168 0
c gate 169 -61 -168 0
-61 -169 0
-168 -169 0
61 168 169 0
c gate 170 -164 169 0
-164 -170 0
169 -170 0
164 -169 170 0
c gate 171 -90 -170 0
-90 -171 0
-170 -171 0
90 170 171 0
c gate 172 -121 -171 0
-121 -172 0
-171 -172 0
121 171 172 0
c gate 173 -102 172 0
-102 -173 0
172 -173 0
102 -172 173 0
c gate 174 -162 -168 0
-162 -174 0
-168 -174 0
162 168 174 0
c gate 175 -173 174 0
-173 -175 0
174 -175 0
173 -174 175 0
c gate 176 61 -175 0
61 -176 0
-175 -176 0
-61 175 176 0
c PO
176 0
